239
400
280	1
279	5
278	3
277	3
276	3
275	2
274	2
273	4
272	5
271	3
270	4
269	3
268	8
267	6
266	3
265	4
264	7
263	3
262	4
261	5
260	3
259	3
258	9
257	2
256	9
255	5
254	3
253	2
252	3
251	3
250	3
249	9
248	2
247	3
246	2
245	7
244	4
243	8
242	3
241	6
240	6
239	6
238	2
237	5
236	5
235	4
234	2
233	3
232	4
231	2
230	1
229	4
228	1
227	4
226	3
225	6
224	4
223	3
222	5
221	6
220	4
219	3
218	4
217	3
216	3
215	2
214	3
213	7
212	3
211	2
210	3
209	6
208	3
207	4
205	6
204	8
203	5
202	6
201	4
200	4
199	3
198	2
197	1
196	1
195	2
194	3
193	11
192	2
191	3
190	5
189	5
188	4
187	5
186	7
185	2
184	5
183	5
182	6
181	4
180	5
179	5
178	3
177	4
176	6
175	2
174	5
173	3
172	6
171	5
170	5
169	2
168	2
167	6
166	5
165	4
164	4
163	5
162	6
161	11
160	3
159	5
158	5
157	4
156	4
155	2
154	3
153	5
152	3
151	2
150	4
149	5
148	3
147	4
146	4
145	3
144	3
143	5
142	6
141	3
140	3
139	4
138	6
137	4
136	5
135	4
134	4
133	5
132	2
131	3
130	4
129	4
128	2
127	6
126	3
125	3
124	2
123	6
122	4
121	5
120	2
119	5
118	2
117	5
116	2
115	4
114	1
113	6
112	2
111	1
110	3
109	4
108	2
107	6
106	1
105	4
104	1
103	8
102	7
101	5
100	5
99	2
98	6
97	2
96	4
95	6
94	3
93	3
92	3
91	7
90	9
89	3
88	4
87	6
86	1
85	4
84	3
83	5
82	3
81	3
80	3
79	5
77	3
76	4
75	12
74	8
73	7
72	4
71	7
70	6
69	3
68	3
67	4
66	4
65	4
64	3
63	3
62	1
61	6
60	5
59	2
58	1
57	5
56	8
55	3
54	5
53	4
52	2
51	7
50	5
49	1
48	7
47	10
46	6
45	9
44	7
43	5
42	2
41	6
40	6
